# Objective value = 32
SL0_r1 0
SH0_r1 0
SL1_r1 0
SH1_r1 0
SL2_r1 0
SH2_r1 0
SL3_r1 0
SH3_r1 0
SL4_r1 0
SH4_r1 0
SL5_r1 0
SH5_r1 0
SL6_r1 0
SH6_r1 0
SL7_r1 0
SH7_r1 0
SL8_r1 0
SH8_r1 0
SL9_r1 0
SH9_r1 0
SL10_r1 0
SH10_r1 0
SL11_r1 0
SH11_r1 0
SL12_r1 0
SH12_r1 0
SL13_r1 0
SH13_r1 0
SL14_r1 0
SH14_r1 0
SL15_r1 0
SH15_r1 1
SL0_r2 0
SH0_r2 0
SL1_r2 0
SH1_r2 0
SL2_r2 0
SH2_r2 0
SL3_r2 0
SH3_r2 0
SL4_r2 0
SH4_r2 0
SL5_r2 0
SH5_r2 0
SL6_r2 0
SH6_r2 0
SL7_r2 0
SH7_r2 0
SL8_r2 0
SH8_r2 0
SL9_r2 0
SH9_r2 0
SL10_r2 0
SH10_r2 0
SL11_r2 0
SH11_r2 0
SL12_r2 0
SH12_r2 0
SL13_r2 0
SH13_r2 0
SL14_r2 0
SH14_r2 0
SL15_r2 0
SH15_r2 1
SL0_r3 0
SH0_r3 0
SL1_r3 0
SH1_r3 0
SL2_r3 0
SH2_r3 0
SL3_r3 0
SH3_r3 1
SL4_r3 0
SH4_r3 0
SL5_r3 0
SH5_r3 0
SL6_r3 0
SH6_r3 0
SL7_r3 0
SH7_r3 0
SL8_r3 0
SH8_r3 0
SL9_r3 0
SH9_r3 0
SL10_r3 0
SH10_r3 0
SL11_r3 0
SH11_r3 0
SL12_r3 0
SH12_r3 0
SL13_r3 0
SH13_r3 0
SL14_r3 0
SH14_r3 0
SL15_r3 0
SH15_r3 1
SL0_r4 0
SH0_r4 1
SL1_r4 0
SH1_r4 0
SL2_r4 0
SH2_r4 0
SL3_r4 0
SH3_r4 1
SL4_r4 0
SH4_r4 0
SL5_r4 0
SH5_r4 0
SL6_r4 0
SH6_r4 0
SL7_r4 0
SH7_r4 0
SL8_r4 0
SH8_r4 0
SL9_r4 0
SH9_r4 0
SL10_r4 0
SH10_r4 0
SL11_r4 0
SH11_r4 0
SL12_r4 0
SH12_r4 1
SL13_r4 0
SH13_r4 0
SL14_r4 0
SH14_r4 0
SL15_r4 0
SH15_r4 1
SL0_r5 0
SH0_r5 1
SL1_r5 0
SH1_r5 0
SL2_r5 0
SH2_r5 0
SL3_r5 0
SH3_r5 1
SL4_r5 0
SH4_r5 0
SL5_r5 0
SH5_r5 0
SL6_r5 0
SH6_r5 0
SL7_r5 0
SH7_r5 0
SL8_r5 0
SH8_r5 0
SL9_r5 0
SH9_r5 0
SL10_r5 0
SH10_r5 0
SL11_r5 0
SH11_r5 0
SL12_r5 0
SH12_r5 1
SL13_r5 0
SH13_r5 0
SL14_r5 0
SH14_r5 0
SL15_r5 0
SH15_r5 1
SL0_r6 0
SH0_r6 0
SL1_r6 0
SH1_r6 0
SL2_r6 0
SH2_r6 0
SL3_r6 0
SH3_r6 0
SL4_r6 0
SH4_r6 1
SL5_r6 0
SH5_r6 0
SL6_r6 0
SH6_r6 0
SL7_r6 0
SH7_r6 1
SL8_r6 0
SH8_r6 0
SL9_r6 0
SH9_r6 0
SL10_r6 0
SH10_r6 0
SL11_r6 0
SH11_r6 0
SL12_r6 0
SH12_r6 0
SL13_r6 0
SH13_r6 0
SL14_r6 0
SH14_r6 0
SL15_r6 0
SH15_r6 0
SL0_r7 0
SH0_r7 0
SL1_r7 0
SH1_r7 0
SL2_r7 0
SH2_r7 0
SL3_r7 0
SH3_r7 0
SL4_r7 0
SH4_r7 0
SL5_r7 0
SH5_r7 1
SL6_r7 0
SH6_r7 0
SL7_r7 0
SH7_r7 0
SL8_r7 0
SH8_r7 0
SL9_r7 0
SH9_r7 0
SL10_r7 0
SH10_r7 0
SL11_r7 0
SH11_r7 0
SL12_r7 0
SH12_r7 0
SL13_r7 0
SH13_r7 0
SL14_r7 0
SH14_r7 0
SL15_r7 0
SH15_r7 0
SL0_r8 0
SH0_r8 0
SL1_r8 0
SH1_r8 0
SL2_r8 0
SH2_r8 0
SL3_r8 0
SH3_r8 0
SL4_r8 0
SH4_r8 0
SL5_r8 0
SH5_r8 1
SL6_r8 0
SH6_r8 0
SL7_r8 0
SH7_r8 0
SL8_r8 0
SH8_r8 0
SL9_r8 0
SH9_r8 0
SL10_r8 0
SH10_r8 0
SL11_r8 0
SH11_r8 0
SL12_r8 0
SH12_r8 0
SL13_r8 0
SH13_r8 0
SL14_r8 0
SH14_r8 0
SL15_r8 0
SH15_r8 0
x0_r1 0
x1_r1 0
x2_r1 0
x3_r1 0
x4_r1 0
x5_r1 0
x6_r1 0
x7_r1 0
x8_r1 0
x9_r1 0
x10_r1 0
x11_r1 0
x12_r1 0
x13_r1 0
x14_r1 0
x15_r1 0
x16_r1 0
x17_r1 0
x18_r1 0
x19_r1 0
x20_r1 0
x21_r1 0
x22_r1 0
x23_r1 0
x24_r1 0
x25_r1 0
x26_r1 0
x27_r1 0
x28_r1 0
x29_r1 0
x30_r1 0
x31_r1 0
x32_r1 0
x33_r1 0
x34_r1 0
x35_r1 0
x36_r1 0
x37_r1 0
x38_r1 0
x39_r1 0
x40_r1 0
x41_r1 0
x42_r1 0
x43_r1 0
x44_r1 0
x45_r1 0
x46_r1 0
x47_r1 0
x48_r1 0
x49_r1 0
x50_r1 0
x51_r1 0
x52_r1 0
x53_r1 0
x54_r1 0
x55_r1 0
x56_r1 0
x57_r1 0
x58_r1 0
x59_r1 0
x60_r1 0
x61_r1 1
x62_r1 1
x63_r1 1
y0_r1 0
y1_r1 0
y2_r1 0
y3_r1 0
y4_r1 0
y5_r1 0
y6_r1 0
y7_r1 0
y8_r1 0
y9_r1 0
y10_r1 0
y11_r1 0
y12_r1 0
y13_r1 0
y14_r1 0
y15_r1 0
y16_r1 0
y17_r1 0
y18_r1 0
y19_r1 0
y20_r1 0
y21_r1 0
y22_r1 0
y23_r1 0
y24_r1 0
y25_r1 0
y26_r1 0
y27_r1 0
y28_r1 0
y29_r1 0
y30_r1 0
y31_r1 0
y32_r1 0
y33_r1 0
y34_r1 0
y35_r1 0
y36_r1 0
y37_r1 0
y38_r1 0
y39_r1 0
y40_r1 0
y41_r1 0
y42_r1 0
y43_r1 0
y44_r1 0
y45_r1 0
y46_r1 0
y47_r1 0
y48_r1 0
y49_r1 0
y50_r1 0
y51_r1 0
y52_r1 0
y53_r1 0
y54_r1 0
y55_r1 0
y56_r1 0
y57_r1 0
y58_r1 0
y59_r1 0
y60_r1 0
y61_r1 0
y62_r1 0
y63_r1 1
y0_r2 0
y1_r2 0
y2_r2 0
y3_r2 0
y4_r2 0
y5_r2 0
y6_r2 0
y7_r2 0
y8_r2 0
y9_r2 0
y10_r2 0
y11_r2 0
y12_r2 0
y13_r2 0
y14_r2 0
y15_r2 0
y16_r2 0
y17_r2 0
y18_r2 0
y19_r2 0
y20_r2 0
y21_r2 0
y22_r2 0
y23_r2 0
y24_r2 0
y25_r2 0
y26_r2 0
y27_r2 0
y28_r2 0
y29_r2 0
y30_r2 0
y31_r2 0
y32_r2 0
y33_r2 0
y34_r2 0
y35_r2 0
y36_r2 0
y37_r2 0
y38_r2 0
y39_r2 0
y40_r2 0
y41_r2 0
y42_r2 0
y43_r2 0
y44_r2 0
y45_r2 0
y46_r2 0
y47_r2 0
y48_r2 0
y49_r2 0
y50_r2 0
y51_r2 0
y52_r2 0
y53_r2 0
y54_r2 0
y55_r2 0
y56_r2 0
y57_r2 0
y58_r2 0
y59_r2 0
y60_r2 1
y61_r2 0
y62_r2 0
y63_r2 1
y0_r3 0
y1_r3 0
y2_r3 0
y3_r3 0
y4_r3 0
y5_r3 0
y6_r3 0
y7_r3 0
y8_r3 0
y9_r3 0
y10_r3 0
y11_r3 0
y12_r3 1
y13_r3 0
y14_r3 0
y15_r3 1
y16_r3 0
y17_r3 0
y18_r3 0
y19_r3 0
y20_r3 0
y21_r3 0
y22_r3 0
y23_r3 0
y24_r3 0
y25_r3 0
y26_r3 0
y27_r3 0
y28_r3 0
y29_r3 0
y30_r3 0
y31_r3 0
y32_r3 0
y33_r3 0
y34_r3 0
y35_r3 0
y36_r3 0
y37_r3 0
y38_r3 0
y39_r3 0
y40_r3 0
y41_r3 0
y42_r3 0
y43_r3 0
y44_r3 0
y45_r3 0
y46_r3 0
y47_r3 0
y48_r3 0
y49_r3 0
y50_r3 0
y51_r3 0
y52_r3 0
y53_r3 0
y54_r3 0
y55_r3 0
y56_r3 0
y57_r3 0
y58_r3 0
y59_r3 0
y60_r3 1
y61_r3 0
y62_r3 0
y63_r3 1
y0_r4 1
y1_r4 0
y2_r4 0
y3_r4 1
y4_r4 0
y5_r4 0
y6_r4 0
y7_r4 0
y8_r4 0
y9_r4 0
y10_r4 0
y11_r4 0
y12_r4 1
y13_r4 0
y14_r4 0
y15_r4 1
y16_r4 0
y17_r4 0
y18_r4 0
y19_r4 0
y20_r4 0
y21_r4 0
y22_r4 0
y23_r4 0
y24_r4 0
y25_r4 0
y26_r4 0
y27_r4 0
y28_r4 0
y29_r4 0
y30_r4 0
y31_r4 0
y32_r4 0
y33_r4 0
y34_r4 0
y35_r4 0
y36_r4 0
y37_r4 0
y38_r4 0
y39_r4 0
y40_r4 0
y41_r4 0
y42_r4 0
y43_r4 0
y44_r4 0
y45_r4 0
y46_r4 0
y47_r4 0
y48_r4 1
y49_r4 0
y50_r4 0
y51_r4 1
y52_r4 0
y53_r4 0
y54_r4 0
y55_r4 0
y56_r4 0
y57_r4 0
y58_r4 0
y59_r4 0
y60_r4 1
y61_r4 0
y62_r4 0
y63_r4 1
y0_r5 0
y1_r5 1
y2_r5 0
y3_r5 0
y4_r5 0
y5_r5 0
y6_r5 0
y7_r5 0
y8_r5 0
y9_r5 0
y10_r5 0
y11_r5 0
y12_r5 0
y13_r5 1
y14_r5 0
y15_r5 0
y16_r5 0
y17_r5 0
y18_r5 0
y19_r5 0
y20_r5 0
y21_r5 0
y22_r5 0
y23_r5 0
y24_r5 0
y25_r5 0
y26_r5 0
y27_r5 0
y28_r5 0
y29_r5 0
y30_r5 0
y31_r5 0
y32_r5 0
y33_r5 0
y34_r5 0
y35_r5 0
y36_r5 0
y37_r5 0
y38_r5 0
y39_r5 0
y40_r5 0
y41_r5 0
y42_r5 0
y43_r5 0
y44_r5 0
y45_r5 0
y46_r5 0
y47_r5 0
y48_r5 0
y49_r5 1
y50_r5 0
y51_r5 0
y52_r5 0
y53_r5 0
y54_r5 0
y55_r5 0
y56_r5 0
y57_r5 0
y58_r5 0
y59_r5 0
y60_r5 0
y61_r5 1
y62_r5 0
y63_r5 0
y0_r6 0
y1_r6 0
y2_r6 0
y3_r6 0
y4_r6 0
y5_r6 0
y6_r6 0
y7_r6 0
y8_r6 0
y9_r6 0
y10_r6 0
y11_r6 0
y12_r6 0
y13_r6 0
y14_r6 0
y15_r6 0
y16_r6 0
y17_r6 1
y18_r6 0
y19_r6 0
y20_r6 0
y21_r6 0
y22_r6 0
y23_r6 0
y24_r6 0
y25_r6 0
y26_r6 0
y27_r6 0
y28_r6 0
y29_r6 1
y30_r6 0
y31_r6 0
y32_r6 0
y33_r6 0
y34_r6 0
y35_r6 0
y36_r6 0
y37_r6 0
y38_r6 0
y39_r6 0
y40_r6 0
y41_r6 0
y42_r6 0
y43_r6 0
y44_r6 0
y45_r6 0
y46_r6 0
y47_r6 0
y48_r6 0
y49_r6 0
y50_r6 0
y51_r6 0
y52_r6 0
y53_r6 0
y54_r6 0
y55_r6 0
y56_r6 0
y57_r6 0
y58_r6 0
y59_r6 0
y60_r6 0
y61_r6 0
y62_r6 0
y63_r6 0
y0_r7 0
y1_r7 0
y2_r7 0
y3_r7 0
y4_r7 0
y5_r7 0
y6_r7 0
y7_r7 0
y8_r7 0
y9_r7 0
y10_r7 0
y11_r7 0
y12_r7 0
y13_r7 0
y14_r7 0
y15_r7 0
y16_r7 0
y17_r7 0
y18_r7 0
y19_r7 0
y20_r7 0
y21_r7 1
y22_r7 0
y23_r7 0
y24_r7 0
y25_r7 0
y26_r7 0
y27_r7 0
y28_r7 0
y29_r7 0
y30_r7 0
y31_r7 0
y32_r7 0
y33_r7 0
y34_r7 0
y35_r7 0
y36_r7 0
y37_r7 0
y38_r7 0
y39_r7 0
y40_r7 0
y41_r7 0
y42_r7 0
y43_r7 0
y44_r7 0
y45_r7 0
y46_r7 0
y47_r7 0
y48_r7 0
y49_r7 0
y50_r7 0
y51_r7 0
y52_r7 0
y53_r7 0
y54_r7 0
y55_r7 0
y56_r7 0
y57_r7 0
y58_r7 0
y59_r7 0
y60_r7 0
y61_r7 0
y62_r7 0
y63_r7 0
y0_r8 0
y1_r8 0
y2_r8 0
y3_r8 0
y4_r8 0
y5_r8 0
y6_r8 0
y7_r8 0
y8_r8 0
y9_r8 0
y10_r8 0
y11_r8 0
y12_r8 0
y13_r8 0
y14_r8 0
y15_r8 0
y16_r8 0
y17_r8 0
y18_r8 0
y19_r8 0
y20_r8 0
y21_r8 1
y22_r8 0
y23_r8 1
y24_r8 0
y25_r8 0
y26_r8 0
y27_r8 0
y28_r8 0
y29_r8 0
y30_r8 0
y31_r8 0
y32_r8 0
y33_r8 0
y34_r8 0
y35_r8 0
y36_r8 0
y37_r8 0
y38_r8 0
y39_r8 0
y40_r8 0
y41_r8 0
y42_r8 0
y43_r8 0
y44_r8 0
y45_r8 0
y46_r8 0
y47_r8 0
y48_r8 0
y49_r8 0
y50_r8 0
y51_r8 0
y52_r8 0
y53_r8 0
y54_r8 0
y55_r8 0
y56_r8 0
y57_r8 0
y58_r8 0
y59_r8 0
y60_r8 0
y61_r8 0
y62_r8 0
y63_r8 0
